import "N2.lt"
import "C12H26.lt"

write_once("In Init") {
  units           real
  atom_style      full
  
  pair_style      lj/cut/coul/cut 13.0 30.0
  pair_modify     mix geometric
  special_bonds   lj/coul 0.0 0.0 0.5

  bond_style      harmonic
  angle_style     harmonic
  dihedral_style  opls
}
