import "N2.lt"
import "C12H26.lt"

write_once("In Init") {
  units           real
  atom_style      full
  boundary        p p p
  pair_style      lj/cut/coul/cut 13.0 30.0
  pair_modify     mix geometric
  special_bonds   lj/coul 0.0 0.0 0.5
  bond_style      harmonic
  angle_style     harmonic
  dihedral_style  opls
  improper_style  cvff
  neighbor        3.0 bin
  neigh_modify    every 1 delay 0 check yes
}

# Define simulation box
write_once("Data Boundary") {
  2.0  3700.0  xlo xhi
  0.0  1400.0  ylo yhi
  0.0  1400.0  zlo zhi
}

# Create molecule of each type for parameter extraction
n2_molecules = new N2 [880]
fuel_molecules = new C12H26 [10]

#n2_molecules.move(1850, 700, 700)         # Spread along x
#fuel_molecules.move(2000, 700, 700)     # Spread differently

# Position them
#n2_dummy.move(100, 700, 700)
#fuel_dummy.move(200, 700, 700)
